NAME          ClpDefau
ROWS
 N  OBJROW
 L  R_276_0
 L  R_276_1
 L  R_276_2
 L  R_276_3
 L  R_276_4
 L  R_276_5
 L  R_276_6
 L  R_276_7
 L  R_276_8
 L  R_276_9
 L  R_276_10
 L  R_276_11
 L  R_276_12
 L  R_276_13
 L  R_276_14
 L  R_276_15
 L  R_276_16
 L  R_276_17
 L  R_276_18
 L  R_276_19
 L  R_276_20
 L  R_276_21
 L  R_276_22
 L  R_276_23
 L  R_276_24
 L  R_276_25
 L  R_276_26
 L  R_276_27
 L  R_276_28
 L  R_276_29
 L  R_276_30
 L  R_276_31
COLUMNS
    x_0       OBJROW     -8.           R_276_2   23.         
    x_0       R_276_4   42.            R_276_5   66.         
    x_0       R_276_9   58.            R_276_18  97.         
    x_1       OBJROW     -12.          R_276_24  25.         
    x_1       R_276_26  74.            R_276_31  67.         
    x_2       OBJROW     -11.          R_276_0   35.         
    x_2       R_276_6   47.            R_276_9   15.         
    x_2       R_276_11  94.            R_276_14  21.         
    x_2       R_276_17  76.            R_276_18  32.         
    x_2       R_276_19  5.             R_276_20  79.         
    x_2       R_276_28  34.         
    x_3       OBJROW     -47.          R_276_4   58.         
    x_3       R_276_20  22.            R_276_21  82.         
    x_3       R_276_25  32.         
    x_4       OBJROW     -22.          R_276_4   5.          
    x_4       R_276_6   66.            R_276_9   24.         
    x_4       R_276_11  4.             R_276_23  54.         
    x_4       R_276_29  16.         
    x_5       OBJROW     -95.          R_276_2   88.         
    x_5       R_276_4   26.            R_276_7   58.         
    x_5       R_276_8   82.            R_276_12  37.         
    x_5       R_276_13  40.            R_276_15  97.         
    x_5       R_276_17  48.            R_276_22  16.         
    x_5       R_276_23  79.            R_276_28  85.         
    x_5       R_276_30  91.         
    x_6       OBJROW     -86.          R_276_19  46.         
    x_6       R_276_20  70.            R_276_21  54.         
    x_6       R_276_27  38.         
    x_7       OBJROW     -40.          R_276_0   37.         
    x_7       R_276_1   70.            R_276_8   21.         
    x_7       R_276_15  57.            R_276_21  36.         
    x_8       OBJROW     -33.          R_276_7   60.         
    x_8       R_276_11  13.            R_276_12  28.         
    x_8       R_276_17  72.            R_276_19  96.         
    x_8       R_276_24  87.            R_276_31  1.          
    x_9       OBJROW     -78.          R_276_3   76.         
    x_9       R_276_9   11.            R_276_19  64.         
    x_9       R_276_23  72.            R_276_25  5.          
    x_10      OBJROW     -28.          R_276_3   41.         
    x_10      R_276_10  82.            R_276_14  65.         
    x_10      R_276_22  49.            R_276_31  92.         
    x_11      OBJROW     -78.          R_276_4   31.         
    x_11      R_276_8   18.         
    x_12      OBJROW     -5.           R_276_0   46.         
    x_12      R_276_2   24.            R_276_6   22.         
    x_12      R_276_18  41.            R_276_24  47.         
    x_13      OBJROW     -75.          R_276_1   19.         
    x_13      R_276_2   9.             R_276_5   67.         
    x_13      R_276_7   83.            R_276_26  14.         
    x_13      R_276_29  88.            R_276_31  51.         
    x_14      OBJROW     -88.          R_276_2   14.         
    x_14      R_276_5   55.            R_276_7   84.         
    x_14      R_276_11  18.            R_276_13  65.         
    x_14      R_276_15  70.            R_276_21  63.         
    x_14      R_276_22  70.            R_276_23  14.         
    x_15      OBJROW     -21.          R_276_5   27.         
    x_15      R_276_6   26.            R_276_22  71.         
    x_15      R_276_26  18.            R_276_31  99.         
    x_16      OBJROW     -56.          R_276_2   41.         
    x_16      R_276_3   26.            R_276_5   89.         
    x_16      R_276_7   12.            R_276_23  90.         
    x_16      R_276_26  54.         
    x_17      OBJROW     -82.          R_276_9   61.         
    x_17      R_276_14  48.            R_276_26  4.          
    x_17      R_276_27  41.            R_276_28  69.         
    x_18      OBJROW     -51.          R_276_3   75.         
    x_18      R_276_6   99.            R_276_8   76.         
    x_18      R_276_11  62.            R_276_14  39.         
    x_18      R_276_31  59.         
    x_19      OBJROW     -93.          R_276_7   70.         
    x_19      R_276_9   91.            R_276_17  59.         
    x_19      R_276_20  62.            R_276_21  84.         
    x_19      R_276_22  42.            R_276_24  19.         
    x_19      R_276_27  72.            R_276_30  91.         
    x_19      R_276_31  40.         
    x_20      OBJROW     -66.          R_276_2   72.         
    x_20      R_276_7   45.            R_276_15  44.         
    x_20      R_276_21  85.            R_276_22  70.         
    x_20      R_276_27  79.            R_276_28  76.         
    x_21      OBJROW     -48.          R_276_0   3.          
    x_21      R_276_2   32.            R_276_6   47.         
    x_21      R_276_7   77.            R_276_11  89.         
    x_21      R_276_16  67.            R_276_21  17.         
    x_22      OBJROW     -70.          R_276_0   77.         
    x_22      R_276_3   33.            R_276_18  39.         
    x_22      R_276_20  71.            R_276_31  37.         
    x_23      OBJROW     -57.          R_276_8   77.         
    x_23      R_276_11  95.            R_276_20  86.         
    x_23      R_276_22  58.         
    x_24      OBJROW     -65.          R_276_4   59.         
    x_24      R_276_5   2.             R_276_10  42.         
    x_24      R_276_20  91.            R_276_21  43.         
    x_24      R_276_25  62.            R_276_30  39.         
    x_25      OBJROW     -35.          R_276_4   28.         
    x_25      R_276_9   31.            R_276_19  99.         
    x_25      R_276_22  26.            R_276_25  63.         
    x_25      R_276_28  27.         
    x_26      OBJROW     -5.           R_276_5   47.         
    x_26      R_276_10  60.            R_276_11  99.         
    x_26      R_276_14  19.            R_276_24  17.         
    x_26      R_276_25  40.            R_276_27  6.          
    x_26      R_276_30  30.         
    x_27      OBJROW     -4.           R_276_3   25.         
    x_27      R_276_4   29.            R_276_5   16.         
    x_27      R_276_8   92.            R_276_13  71.         
    x_27      R_276_17  10.            R_276_20  95.         
    x_27      R_276_27  95.            R_276_28  12.         
    x_28      OBJROW     -47.          R_276_0   39.         
    x_28      R_276_4   30.            R_276_9   24.         
    x_28      R_276_13  43.            R_276_19  6.          
    x_28      R_276_20  49.            R_276_21  99.         
    x_28      R_276_27  74.            R_276_29  85.         
    x_29      OBJROW     -60.          R_276_0   41.         
    x_29      R_276_1   31.            R_276_5   30.         
    x_29      R_276_6   14.            R_276_14  17.         
    x_29      R_276_17  20.            R_276_22  1.          
    x_29      R_276_25  1.             R_276_26  49.         
    x_29      R_276_29  35.         
    x_30      OBJROW     -41.          R_276_28  29.         
    x_31      OBJROW     -49.          R_276_3   10.         
    x_31      R_276_7   48.            R_276_11  72.         
    x_31      R_276_12  51.            R_276_26  80.         
    x_31      R_276_30  63.            R_276_31  42.         
RHS
    RHS       R_276_0   357.           R_276_1   413.        
    RHS       R_276_2   402.           R_276_3   325.        
    RHS       R_276_4   379.           R_276_5   362.        
    RHS       R_276_6   343.           R_276_7   377.        
    RHS       R_276_8   326.           R_276_9   346.        
    RHS       R_276_10  367.           R_276_11  352.        
    RHS       R_276_12  415.           R_276_13  376.        
    RHS       R_276_14  353.           R_276_15  406.        
    RHS       R_276_16  384.           R_276_17  352.        
    RHS       R_276_18  326.           R_276_19  412.        
    RHS       R_276_20  361.           R_276_21  321.        
    RHS       R_276_22  373.           R_276_23  403.        
    RHS       R_276_24  348.           R_276_25  343.        
    RHS       R_276_26  369.           R_276_27  408.        
    RHS       R_276_28  407.           R_276_29  381.        
    RHS       R_276_30  337.           R_276_31  374.        
BOUNDS
 UI BOUND     x_0       100.        
 UI BOUND     x_1       100.        
 UI BOUND     x_2       100.        
 UI BOUND     x_3       100.        
 UI BOUND     x_4       100.        
 UI BOUND     x_5       100.        
 UI BOUND     x_6       100.        
 UI BOUND     x_7       100.        
 UI BOUND     x_8       100.        
 UI BOUND     x_9       100.        
 UI BOUND     x_10      100.        
 UI BOUND     x_11      100.        
 UI BOUND     x_12      100.        
 UI BOUND     x_13      100.        
 UI BOUND     x_14      100.        
 UI BOUND     x_15      100.        
 UI BOUND     x_16      100.        
 UI BOUND     x_17      100.        
 UI BOUND     x_18      100.        
 UI BOUND     x_19      100.        
 UI BOUND     x_20      100.        
 UI BOUND     x_21      100.        
 UI BOUND     x_22      100.        
 UI BOUND     x_23      100.        
 UI BOUND     x_24      100.        
 UI BOUND     x_25      100.        
 UI BOUND     x_26      100.        
 UI BOUND     x_27      100.        
 UI BOUND     x_28      100.        
 UI BOUND     x_29      100.        
 UI BOUND     x_30      100.        
 UI BOUND     x_31      100.        
ENDATA
